c SAT07-Contest Parameters: unif2p p=7 nbc2=2803 nbc3=6541 v=3500 seed=1286605994
c Uniform UNKNOWN (2+p)-SAT Instance nbc2=2803, nbc3=6541, p=0.70, nbv=3500, seed=1286605994
p cnf 6 6
-1 -2 0
2 3 0
1 3 0
-1 2 0
-2 0
-1 2 1 0
4 5 0
5 -6 0
